p cnf 285 1517
146 147 0
136 145 192 0
130 148 162 196 0
100 152 247 0
169 202 0
68 107 110 114 150 0
64 105 109 144 0
93 96 103 117 262 0
56 58 212 214 0
115 124 158 0
112 132 160 163 0
155 177 0
38 41 121 0
35 72 140 171 174 179 0
26 125 161 182 0
66 113 133 149 0
88 89 104 156 0
91 95 98 102 0
87 134 0
81 82 84 86 122 0
78 79 128 0
75 77 0
139 170 173 0
69 70 73 0
67 106 111 143 0
59 61 62 101 0
52 53 55 57 0
49 50 51 0
47 74 76 164 0
44 45 46 0
39 42 99 120 166 167 0
36 37 138 141 176 0
32 34 71 175 0
25 27 30 126 181 0
65 157 183 184 0
92 185 0
186 188 189 0
80 129 131 0
190 191 193 0
195 197 0
198 200 201 203 206 0
151 208 273 0
54 119 210 0
63 211 0
213 215 216 0
217 219 0
159 168 0
142 172 178 180 0
29 220 223 225 0
-140 -221 0
-125 -140 0
-133 -140 0
-140 -156 0
-125 -221 0
-133 -221 0
-156 -221 0
-125 -133 0
-125 -156 0
-133 -156 0
-62 -67 0
-67 -97 0
-57 -67 0
-51 -67 0
-62 -97 0
-57 -62 0
-51 -62 0
-57 -97 0
-51 -97 0
-51 -57 0
-37 -42 0
-42 -175 0
-30 -42 0
-42 -226 0
-37 -175 0
-30 -37 0
-37 -226 0
-30 -175 0
-175 -226 0
-30 -226 0
-135 -186 0
-85 -186 0
-80 -186 0
-186 -190 0
-85 -135 0
-80 -135 0
-135 -190 0
-80 -85 0
-85 -190 0
-80 -190 0
-198 -208 0
-108 -198 0
-60 -198 0
-119 -198 0
-108 -208 0
-60 -208 0
-119 -208 0
-60 -108 0
-108 -119 0
-60 -119 0
-67 -140 0
-42 -140 0
-140 -186 0
-140 -198 0
-42 -67 0
-67 -186 0
-67 -198 0
-42 -186 0
-42 -198 0
-186 -198 0
-62 -221 0
-37 -221 0
-135 -221 0
-208 -221 0
-37 -62 0
-62 -135 0
-62 -208 0
-37 -135 0
-37 -208 0
-135 -208 0
-97 -125 0
-125 -175 0
-85 -125 0
-108 -125 0
-97 -175 0
-85 -97 0
-97 -108 0
-85 -175 0
-108 -175 0
-85 -108 0
-57 -133 0
-30 -133 0
-80 -133 0
-60 -133 0
-30 -57 0
-57 -80 0
-57 -60 0
-30 -80 0
-30 -60 0
-60 -80 0
-51 -156 0
-156 -226 0
-156 -190 0
-119 -156 0
-51 -226 0
-51 -190 0
-51 -119 0
-190 -226 0
-119 -226 0
-119 -190 0
-144 -227 0
-103 -227 0
-227 -228 0
-227 -229 0
-158 -227 0
-112 -227 0
-103 -144 0
-144 -228 0
-144 -229 0
-144 -158 0
-112 -144 0
-103 -228 0
-103 -229 0
-103 -158 0
-103 -112 0
-228 -229 0
-158 -228 0
-112 -228 0
-158 -229 0
-112 -229 0
-112 -158 0
-87 -230 0
-86 -230 0
-77 -230 0
-230 -231 0
-230 -232 0
-139 -230 0
-86 -87 0
-77 -87 0
-87 -231 0
-87 -232 0
-87 -139 0
-77 -86 0
-86 -231 0
-86 -232 0
-86 -139 0
-77 -231 0
-77 -232 0
-77 -139 0
-231 -232 0
-139 -231 0
-139 -232 0
-73 -233 0
-73 -111 0
-73 -94 0
-55 -73 0
-50 -73 0
-73 -234 0
-111 -233 0
-94 -233 0
-55 -233 0
-50 -233 0
-233 -234 0
-94 -111 0
-55 -111 0
-50 -111 0
-111 -234 0
-55 -94 0
-50 -94 0
-94 -234 0
-50 -55 0
-55 -234 0
-50 -234 0
-46 -235 0
-99 -235 0
-34 -235 0
-27 -235 0
-235 -236 0
-65 -235 0
-46 -99 0
-34 -46 0
-27 -46 0
-46 -236 0
-46 -65 0
-34 -99 0
-27 -99 0
-99 -236 0
-65 -99 0
-27 -34 0
-34 -236 0
-34 -65 0
-27 -236 0
-27 -65 0
-65 -236 0
-237 -238 0
-188 -237 0
-123 -237 0
-129 -237 0
-191 -237 0
-237 -239 0
-188 -238 0
-123 -238 0
-129 -238 0
-191 -238 0
-238 -239 0
-123 -188 0
-129 -188 0
-188 -191 0
-188 -239 0
-123 -129 0
-123 -191 0
-123 -239 0
-129 -191 0
-129 -239 0
-191 -239 0
-195 -240 0
-195 -200 0
-195 -241 0
-195 -242 0
-195 -210 0
-195 -211 0
-200 -240 0
-240 -241 0
-240 -242 0
-210 -240 0
-211 -240 0
-200 -241 0
-200 -242 0
-200 -210 0
-200 -211 0
-241 -242 0
-210 -241 0
-211 -241 0
-210 -242 0
-211 -242 0
-210 -211 0
-243 -244 0
-48 -243 0
-168 -243 0
-142 -243 0
-220 -243 0
-127 -243 0
-48 -244 0
-168 -244 0
-142 -244 0
-220 -244 0
-127 -244 0
-48 -168 0
-48 -142 0
-48 -220 0
-48 -127 0
-142 -168 0
-168 -220 0
-127 -168 0
-142 -220 0
-127 -142 0
-127 -220 0
-227 -230 0
-73 -227 0
-227 -235 0
-227 -237 0
-195 -227 0
-227 -243 0
-73 -230 0
-230 -235 0
-230 -237 0
-195 -230 0
-230 -243 0
-73 -235 0
-73 -237 0
-73 -195 0
-73 -243 0
-235 -237 0
-195 -235 0
-235 -243 0
-195 -237 0
-237 -243 0
-195 -243 0
-87 -144 0
-144 -233 0
-46 -144 0
-144 -238 0
-144 -240 0
-144 -244 0
-87 -233 0
-46 -87 0
-87 -238 0
-87 -240 0
-87 -244 0
-46 -233 0
-233 -238 0
-233 -240 0
-233 -244 0
-46 -238 0
-46 -240 0
-46 -244 0
-238 -240 0
-238 -244 0
-240 -244 0
-86 -103 0
-103 -111 0
-99 -103 0
-103 -188 0
-103 -200 0
-48 -103 0
-86 -111 0
-86 -99 0
-86 -188 0
-86 -200 0
-48 -86 0
-99 -111 0
-111 -188 0
-111 -200 0
-48 -111 0
-99 -188 0
-99 -200 0
-48 -99 0
-188 -200 0
-48 -188 0
-48 -200 0
-77 -228 0
-94 -228 0
-34 -228 0
-123 -228 0
-228 -241 0
-168 -228 0
-77 -94 0
-34 -77 0
-77 -123 0
-77 -241 0
-77 -168 0
-34 -94 0
-94 -123 0
-94 -241 0
-94 -168 0
-34 -123 0
-34 -241 0
-34 -168 0
-123 -241 0
-123 -168 0
-168 -241 0
-229 -231 0
-55 -229 0
-27 -229 0
-129 -229 0
-229 -242 0
-142 -229 0
-55 -231 0
-27 -231 0
-129 -231 0
-231 -242 0
-142 -231 0
-27 -55 0
-55 -129 0
-55 -242 0
-55 -142 0
-27 -129 0
-27 -242 0
-27 -142 0
-129 -242 0
-129 -142 0
-142 -242 0
-158 -232 0
-50 -158 0
-158 -236 0
-158 -191 0
-158 -210 0
-158 -220 0
-50 -232 0
-232 -236 0
-191 -232 0
-210 -232 0
-220 -232 0
-50 -236 0
-50 -191 0
-50 -210 0
-50 -220 0
-191 -236 0
-210 -236 0
-220 -236 0
-191 -210 0
-191 -220 0
-210 -220 0
-112 -139 0
-112 -234 0
-65 -112 0
-112 -239 0
-112 -211 0
-112 -127 0
-139 -234 0
-65 -139 0
-139 -239 0
-139 -211 0
-127 -139 0
-65 -234 0
-234 -239 0
-211 -234 0
-127 -234 0
-65 -239 0
-65 -211 0
-65 -127 0
-211 -239 0
-127 -239 0
-127 -211 0
-136 -146 0
-83 -146 0
-146 -266 0
-146 -247 0
-146 -246 0
-83 -136 0
-136 -266 0
-136 -247 0
-136 -246 0
-83 -266 0
-83 -247 0
-83 -246 0
-247 -266 0
-246 -266 0
-246 -247 0
-150 -268 0
-109 -268 0
-212 -268 0
-250 -268 0
-160 -268 0
-109 -150 0
-150 -212 0
-150 -250 0
-150 -160 0
-109 -212 0
-109 -250 0
-109 -160 0
-212 -250 0
-160 -212 0
-160 -250 0
-177 -218 0
-121 -177 0
-33 -177 0
-177 -182 0
-102 -177 0
-121 -218 0
-33 -218 0
-182 -218 0
-102 -218 0
-33 -121 0
-121 -182 0
-102 -121 0
-33 -182 0
-33 -102 0
-102 -182 0
-70 -251 0
-70 -252 0
-61 -70 0
-70 -253 0
-70 -254 0
-251 -252 0
-61 -251 0
-251 -253 0
-251 -254 0
-61 -252 0
-252 -253 0
-252 -254 0
-61 -253 0
-61 -254 0
-253 -254 0
-76 -255 0
-45 -255 0
-138 -255 0
-71 -255 0
-183 -255 0
-45 -76 0
-76 -138 0
-71 -76 0
-76 -183 0
-45 -138 0
-45 -71 0
-45 -183 0
-71 -138 0
-138 -183 0
-71 -183 0
-90 -92 0
-90 -256 0
-90 -257 0
-90 -258 0
-90 -259 0
-92 -256 0
-92 -257 0
-92 -258 0
-92 -259 0
-256 -257 0
-256 -258 0
-256 -259 0
-257 -258 0
-257 -259 0
-258 -259 0
-146 -268 0
-146 -177 0
-70 -146 0
-146 -255 0
-90 -146 0
-177 -268 0
-70 -268 0
-255 -268 0
-90 -268 0
-70 -177 0
-177 -255 0
-90 -177 0
-70 -255 0
-70 -90 0
-90 -255 0
-136 -150 0
-136 -218 0
-136 -251 0
-76 -136 0
-92 -136 0
-150 -218 0
-150 -251 0
-76 -150 0
-92 -150 0
-218 -251 0
-76 -218 0
-92 -218 0
-76 -251 0
-92 -251 0
-76 -92 0
-83 -109 0
-83 -121 0
-83 -252 0
-45 -83 0
-83 -256 0
-109 -121 0
-109 -252 0
-45 -109 0
-109 -256 0
-121 -252 0
-45 -121 0
-121 -256 0
-45 -252 0
-252 -256 0
-45 -256 0
-212 -266 0
-33 -266 0
-61 -266 0
-138 -266 0
-257 -266 0
-33 -212 0
-61 -212 0
-138 -212 0
-212 -257 0
-33 -61 0
-33 -138 0
-33 -257 0
-61 -138 0
-61 -257 0
-138 -257 0
-247 -250 0
-182 -247 0
-247 -253 0
-71 -247 0
-247 -258 0
-182 -250 0
-250 -253 0
-71 -250 0
-250 -258 0
-182 -253 0
-71 -182 0
-182 -258 0
-71 -253 0
-253 -258 0
-71 -258 0
-160 -246 0
-102 -246 0
-246 -254 0
-183 -246 0
-246 -259 0
-102 -160 0
-160 -254 0
-160 -183 0
-160 -259 0
-102 -254 0
-102 -183 0
-102 -259 0
-183 -254 0
-254 -259 0
-183 -259 0
-153 -192 0
-130 -192 0
-192 -194 0
-152 -192 0
-169 -192 0
-130 -153 0
-153 -194 0
-152 -153 0
-153 -169 0
-130 -194 0
-130 -152 0
-130 -169 0
-152 -194 0
-169 -194 0
-152 -169 0
-105 -114 0
-114 -262 0
-114 -214 0
-114 -284 0
-114 -261 0
-105 -262 0
-105 -214 0
-105 -284 0
-105 -261 0
-214 -262 0
-262 -284 0
-261 -262 0
-214 -284 0
-214 -261 0
-261 -284 0
-41 -222 0
-171 -222 0
-222 -224 0
-26 -222 0
-149 -222 0
-41 -171 0
-41 -224 0
-26 -41 0
-41 -149 0
-171 -224 0
-26 -171 0
-149 -171 0
-26 -224 0
-149 -224 0
-26 -149 0
-207 -264 0
-143 -264 0
-101 -264 0
-264 -265 0
-53 -264 0
-143 -207 0
-101 -207 0
-207 -265 0
-53 -207 0
-101 -143 0
-143 -265 0
-53 -143 0
-101 -265 0
-53 -101 0
-53 -265 0
-248 -267 0
-201 -267 0
-151 -267 0
-245 -267 0
-267 -269 0
-201 -248 0
-151 -248 0
-245 -248 0
-248 -269 0
-151 -201 0
-201 -245 0
-201 -269 0
-151 -245 0
-151 -269 0
-245 -269 0
-213 -249 0
-165 -213 0
-213 -217 0
-159 -213 0
-178 -213 0
-165 -249 0
-217 -249 0
-159 -249 0
-178 -249 0
-165 -217 0
-159 -165 0
-165 -178 0
-159 -217 0
-178 -217 0
-159 -178 0
-114 -192 0
-192 -222 0
-192 -264 0
-192 -267 0
-192 -213 0
-114 -222 0
-114 -264 0
-114 -267 0
-114 -213 0
-222 -264 0
-222 -267 0
-213 -222 0
-264 -267 0
-213 -264 0
-213 -267 0
-105 -153 0
-41 -153 0
-153 -207 0
-153 -248 0
-153 -249 0
-41 -105 0
-105 -207 0
-105 -248 0
-105 -249 0
-41 -207 0
-41 -248 0
-41 -249 0
-207 -248 0
-207 -249 0
-248 -249 0
-130 -262 0
-130 -171 0
-130 -143 0
-130 -201 0
-130 -165 0
-171 -262 0
-143 -262 0
-201 -262 0
-165 -262 0
-143 -171 0
-171 -201 0
-165 -171 0
-143 -201 0
-143 -165 0
-165 -201 0
-194 -214 0
-194 -224 0
-101 -194 0
-151 -194 0
-194 -217 0
-214 -224 0
-101 -214 0
-151 -214 0
-214 -217 0
-101 -224 0
-151 -224 0
-217 -224 0
-101 -151 0
-101 -217 0
-151 -217 0
-152 -284 0
-26 -152 0
-152 -265 0
-152 -245 0
-152 -159 0
-26 -284 0
-265 -284 0
-245 -284 0
-159 -284 0
-26 -265 0
-26 -245 0
-26 -159 0
-245 -265 0
-159 -265 0
-159 -245 0
-169 -261 0
-149 -169 0
-53 -169 0
-169 -269 0
-169 -178 0
-149 -261 0
-53 -261 0
-261 -269 0
-178 -261 0
-53 -149 0
-149 -269 0
-149 -178 0
-53 -269 0
-53 -178 0
-178 -269 0
-145 -147 0
-147 -270 0
-147 -162 0
-147 -272 0
-147 -202 0
-147 -274 0
-147 -275 0
-145 -270 0
-145 -162 0
-145 -272 0
-145 -202 0
-145 -274 0
-145 -275 0
-162 -270 0
-270 -272 0
-202 -270 0
-270 -274 0
-270 -275 0
-162 -272 0
-162 -202 0
-162 -274 0
-162 -275 0
-202 -272 0
-272 -274 0
-272 -275 0
-202 -274 0
-202 -275 0
-274 -275 0
-68 -205 0
-64 -205 0
-96 -205 0
-58 -205 0
-205 -276 0
-124 -205 0
-132 -205 0
-64 -68 0
-68 -96 0
-58 -68 0
-68 -276 0
-68 -124 0
-68 -132 0
-64 -96 0
-58 -64 0
-64 -276 0
-64 -124 0
-64 -132 0
-58 -96 0
-96 -276 0
-96 -124 0
-96 -132 0
-58 -276 0
-58 -124 0
-58 -132 0
-124 -276 0
-132 -276 0
-124 -132 0
-43 -155 0
-38 -155 0
-155 -174 0
-31 -155 0
-113 -155 0
-104 -155 0
-98 -155 0
-38 -43 0
-43 -174 0
-31 -43 0
-43 -113 0
-43 -104 0
-43 -98 0
-38 -174 0
-31 -38 0
-38 -113 0
-38 -104 0
-38 -98 0
-31 -174 0
-113 -174 0
-104 -174 0
-98 -174 0
-31 -113 0
-31 -104 0
-31 -98 0
-104 -113 0
-98 -113 0
-98 -104 0
-187 -277 0
-134 -277 0
-84 -277 0
-79 -277 0
-277 -278 0
-277 -279 0
-170 -277 0
-134 -187 0
-84 -187 0
-79 -187 0
-187 -278 0
-187 -279 0
-170 -187 0
-84 -134 0
-79 -134 0
-134 -278 0
-134 -279 0
-134 -170 0
-79 -84 0
-84 -278 0
-84 -279 0
-84 -170 0
-79 -278 0
-79 -279 0
-79 -170 0
-278 -279 0
-170 -278 0
-170 -279 0
-69 -199 0
-69 -209 0
-69 -106 0
-59 -69 0
-52 -69 0
-49 -69 0
-69 -280 0
-199 -209 0
-106 -199 0
-59 -199 0
-52 -199 0
-49 -199 0
-199 -280 0
-106 -209 0
-59 -209 0
-52 -209 0
-49 -209 0
-209 -280 0
-59 -106 0
-52 -106 0
-49 -106 0
-106 -280 0
-52 -59 0
-49 -59 0
-59 -280 0
-49 -52 0
-52 -280 0
-49 -280 0
-116 -164 0
-44 -116 0
-116 -166 0
-36 -116 0
-116 -181 0
-116 -281 0
-116 -184 0
-44 -164 0
-164 -166 0
-36 -164 0
-164 -181 0
-164 -281 0
-164 -184 0
-44 -166 0
-36 -44 0
-44 -181 0
-44 -281 0
-44 -184 0
-36 -166 0
-166 -181 0
-166 -281 0
-166 -184 0
-36 -181 0
-36 -281 0
-36 -184 0
-181 -281 0
-181 -184 0
-184 -281 0
-185 -282 0
-282 -283 0
-189 -282 0
-137 -282 0
-131 -282 0
-193 -282 0
-154 -282 0
-185 -283 0
-185 -189 0
-137 -185 0
-131 -185 0
-185 -193 0
-154 -185 0
-189 -283 0
-137 -283 0
-131 -283 0
-193 -283 0
-154 -283 0
-137 -189 0
-131 -189 0
-189 -193 0
-154 -189 0
-131 -137 0
-137 -193 0
-137 -154 0
-131 -193 0
-131 -154 0
-154 -193 0
-215 -263 0
-263 -285 0
-260 -263 0
-219 -263 0
-172 -263 0
-223 -263 0
-40 -263 0
-215 -285 0
-215 -260 0
-215 -219 0
-172 -215 0
-215 -223 0
-40 -215 0
-260 -285 0
-219 -285 0
-172 -285 0
-223 -285 0
-40 -285 0
-219 -260 0
-172 -260 0
-223 -260 0
-40 -260 0
-172 -219 0
-219 -223 0
-40 -219 0
-172 -223 0
-40 -172 0
-40 -223 0
-147 -205 0
-147 -155 0
-147 -277 0
-69 -147 0
-116 -147 0
-147 -282 0
-147 -263 0
-155 -205 0
-205 -277 0
-69 -205 0
-116 -205 0
-205 -282 0
-205 -263 0
-155 -277 0
-69 -155 0
-116 -155 0
-155 -282 0
-155 -263 0
-69 -277 0
-116 -277 0
-277 -282 0
-263 -277 0
-69 -116 0
-69 -282 0
-69 -263 0
-116 -282 0
-116 -263 0
-263 -282 0
-68 -145 0
-43 -145 0
-145 -187 0
-145 -199 0
-145 -164 0
-145 -185 0
-145 -215 0
-43 -68 0
-68 -187 0
-68 -199 0
-68 -164 0
-68 -185 0
-68 -215 0
-43 -187 0
-43 -199 0
-43 -164 0
-43 -185 0
-43 -215 0
-187 -199 0
-164 -187 0
-185 -187 0
-187 -215 0
-164 -199 0
-185 -199 0
-199 -215 0
-164 -185 0
-164 -215 0
-185 -215 0
-64 -270 0
-38 -270 0
-134 -270 0
-209 -270 0
-44 -270 0
-270 -283 0
-270 -285 0
-38 -64 0
-64 -134 0
-64 -209 0
-44 -64 0
-64 -283 0
-64 -285 0
-38 -134 0
-38 -209 0
-38 -44 0
-38 -283 0
-38 -285 0
-134 -209 0
-44 -134 0
-134 -283 0
-134 -285 0
-44 -209 0
-209 -283 0
-209 -285 0
-44 -283 0
-44 -285 0
-283 -285 0
-96 -162 0
-162 -174 0
-84 -162 0
-106 -162 0
-162 -166 0
-162 -189 0
-162 -260 0
-96 -174 0
-84 -96 0
-96 -106 0
-96 -166 0
-96 -189 0
-96 -260 0
-84 -174 0
-106 -174 0
-166 -174 0
-174 -189 0
-174 -260 0
-84 -106 0
-84 -166 0
-84 -189 0
-84 -260 0
-106 -166 0
-106 -189 0
-106 -260 0
-166 -189 0
-166 -260 0
-189 -260 0
-58 -272 0
-31 -272 0
-79 -272 0
-59 -272 0
-36 -272 0
-137 -272 0
-219 -272 0
-31 -58 0
-58 -79 0
-58 -59 0
-36 -58 0
-58 -137 0
-58 -219 0
-31 -79 0
-31 -59 0
-31 -36 0
-31 -137 0
-31 -219 0
-59 -79 0
-36 -79 0
-79 -137 0
-79 -219 0
-36 -59 0
-59 -137 0
-59 -219 0
-36 -137 0
-36 -219 0
-137 -219 0
-202 -276 0
-113 -202 0
-202 -278 0
-52 -202 0
-181 -202 0
-131 -202 0
-172 -202 0
-113 -276 0
-276 -278 0
-52 -276 0
-181 -276 0
-131 -276 0
-172 -276 0
-113 -278 0
-52 -113 0
-113 -181 0
-113 -131 0
-113 -172 0
-52 -278 0
-181 -278 0
-131 -278 0
-172 -278 0
-52 -181 0
-52 -131 0
-52 -172 0
-131 -181 0
-172 -181 0
-131 -172 0
-124 -274 0
-104 -274 0
-274 -279 0
-49 -274 0
-274 -281 0
-193 -274 0
-223 -274 0
-104 -124 0
-124 -279 0
-49 -124 0
-124 -281 0
-124 -193 0
-124 -223 0
-104 -279 0
-49 -104 0
-104 -281 0
-104 -193 0
-104 -223 0
-49 -279 0
-279 -281 0
-193 -279 0
-223 -279 0
-49 -281 0
-49 -193 0
-49 -223 0
-193 -281 0
-223 -281 0
-193 -223 0
-132 -275 0
-98 -275 0
-170 -275 0
-275 -280 0
-184 -275 0
-154 -275 0
-40 -275 0
-98 -132 0
-132 -170 0
-132 -280 0
-132 -184 0
-132 -154 0
-40 -132 0
-98 -170 0
-98 -280 0
-98 -184 0
-98 -154 0
-40 -98 0
-170 -280 0
-170 -184 0
-154 -170 0
-40 -170 0
-184 -280 0
-154 -280 0
-40 -280 0
-154 -184 0
-40 -184 0
-40 -154 0
-93 -110 0
-56 -110 0
-24 -110 0
-110 -163 0
-56 -93 0
-24 -93 0
-93 -163 0
-24 -56 0
-56 -163 0
-24 -163 0
-28 -35 0
-22 -28 0
-28 -66 0
-28 -95 0
-22 -35 0
-35 -66 0
-35 -95 0
-22 -66 0
-22 -95 0
-66 -95 0
-21 -122 0
-21 -128 0
-20 -21 0
-21 -173 0
-122 -128 0
-20 -122 0
-122 -173 0
-20 -128 0
-128 -173 0
-20 -173 0
-47 -167 0
-47 -141 0
-47 -126 0
-47 -157 0
-141 -167 0
-126 -167 0
-157 -167 0
-126 -141 0
-141 -157 0
-126 -157 0
-203 -271 0
-271 -273 0
-204 -271 0
-63 -271 0
-203 -273 0
-203 -204 0
-63 -203 0
-204 -273 0
-63 -273 0
-63 -204 0
-28 -110 0
-21 -110 0
-47 -110 0
-110 -271 0
-21 -28 0
-28 -47 0
-28 -271 0
-21 -47 0
-21 -271 0
-47 -271 0
-35 -93 0
-93 -122 0
-93 -167 0
-93 -203 0
-35 -122 0
-35 -167 0
-35 -203 0
-122 -167 0
-122 -203 0
-167 -203 0
-22 -56 0
-56 -128 0
-56 -141 0
-56 -273 0
-22 -128 0
-22 -141 0
-22 -273 0
-128 -141 0
-128 -273 0
-141 -273 0
-24 -66 0
-20 -24 0
-24 -126 0
-24 -204 0
-20 -66 0
-66 -126 0
-66 -204 0
-20 -126 0
-20 -204 0
-126 -204 0
-95 -163 0
-163 -173 0
-157 -163 0
-63 -163 0
-95 -173 0
-95 -157 0
-63 -95 0
-157 -173 0
-63 -173 0
-63 -157 0
-19 -148 0
-18 -148 0
-18 -19 0
-72 -89 0
-72 -91 0
-89 -91 0
-23 -29 0
-17 -23 0
-17 -29 0
-72 -148 0
-23 -148 0
-23 -72 0
-19 -89 0
-19 -29 0
-29 -89 0
-18 -91 0
-17 -18 0
-17 -91 0
-16 -196 0
-100 -196 0
-14 -196 0
-16 -100 0
-14 -16 0
-14 -100 0
-13 -179 0
-161 -179 0
-88 -179 0
-13 -161 0
-13 -88 0
-88 -161 0
-78 -82 0
-75 -82 0
-12 -82 0
-75 -78 0
-12 -78 0
-12 -75 0
-120 -176 0
-32 -120 0
-11 -120 0
-32 -176 0
-11 -176 0
-11 -32 0
-179 -196 0
-82 -196 0
-120 -196 0
-82 -179 0
-120 -179 0
-82 -120 0
-13 -16 0
-16 -78 0
-16 -176 0
-13 -78 0
-13 -176 0
-78 -176 0
-100 -161 0
-75 -100 0
-32 -100 0
-75 -161 0
-32 -161 0
-32 -75 0
-14 -88 0
-12 -14 0
-11 -14 0
-12 -88 0
-11 -88 0
-11 -12 0
-107 -118 0
-117 -118 0
-10 -118 0
-115 -118 0
-107 -117 0
-10 -107 0
-107 -115 0
-10 -117 0
-115 -117 0
-10 -115 0
-8 -9 0
-9 -81 0
-7 -9 0
-6 -9 0
-8 -81 0
-7 -8 0
-6 -8 0
-7 -81 0
-6 -81 0
-6 -7 0
-5 -74 0
-5 -39 0
-5 -25 0
-4 -5 0
-39 -74 0
-25 -74 0
-4 -74 0
-25 -39 0
-4 -39 0
-4 -25 0
-15 -197 0
-197 -206 0
-3 -197 0
-54 -197 0
-15 -206 0
-3 -15 0
-15 -54 0
-3 -206 0
-54 -206 0
-3 -54 0
-2 -216 0
-1 -2 0
-2 -180 0
-2 -225 0
-1 -216 0
-180 -216 0
-216 -225 0
-1 -180 0
-1 -225 0
-180 -225 0
-9 -118 0
-5 -118 0
-118 -197 0
-2 -118 0
-5 -9 0
-9 -197 0
-2 -9 0
-5 -197 0
-2 -5 0
-2 -197 0
-8 -107 0
-74 -107 0
-15 -107 0
-107 -216 0
-8 -74 0
-8 -15 0
-8 -216 0
-15 -74 0
-74 -216 0
-15 -216 0
-81 -117 0
-39 -117 0
-117 -206 0
-1 -117 0
-39 -81 0
-81 -206 0
-1 -81 0
-39 -206 0
-1 -39 0
-1 -206 0
-7 -10 0
-10 -25 0
-3 -10 0
-10 -180 0
-7 -25 0
-3 -7 0
-7 -180 0
-3 -25 0
-25 -180 0
-3 -180 0
-6 -115 0
-4 -115 0
-54 -115 0
-115 -225 0
-4 -6 0
-6 -54 0
-6 -225 0
-4 -54 0
-4 -225 0
-54 -225 0
